unsat
(define-fun f ((x0 (BitVec 64)) (x1 (BitVec 64))) (BitVec 64) (bvsub #b0000000000000000000000000000000000000000000000000000000000010001 x0))
(define-fun f ((x0 (BitVec 64)) (x1 (BitVec 64))) (BitVec 64) (bvsub #b0000000000000000000000000000000000000000000000000000000000010001 x0))
int-arith48.sl running time : 0 m .475980410 s
times : .475980410
